;; Mutation-Based Equivalence Benchmark
;; Source:     AutomatArk / instance12234.smt2
;; Mutations:  intersect_no_slash_slash, range_expand_hi, intersect_no_dot_dot
;; Status:     sat
;;
;; Original regex vs mutated regex
;; Equivalence check: unsat ⟺ L(R1) = L(R2)

(set-info :smt-lib-version 2.6)
(set-info :category "mutation")
(set-info :status sat)
(set-logic QF_S)


;; R1: original
;; R2: mutated (intersect_no_slash_slash, range_expand_hi, intersect_no_dot_dot)
(assert
  (not
    (=
      (re.++ (re.union (re.++ ((_ re.loop 1 1) (str.to_re "3")) ((_ re.loop 1 1) (re.range "0" "1"))) (re.++ (re.opt (re.range "1" "1")) ((_ re.loop 1 1) (re.range "0" "9")))) (str.to_re "-") (re.union (re.++ (re.opt (re.range "0" "1")) ((_ re.loop 1 1) (re.range "0" "2"))) ((_ re.loop 1 1) (re.range "0" "9"))) (str.to_re "-") ((_ re.loop 4 4) (re.range "0" "9")) (re.opt (re.++ (re.+ (re.union (str.to_re " ") (str.to_re "\u{9}") (str.to_re "\u{a}") (str.to_re "\u{c}") (str.to_re "\u{d}"))) (re.union (re.++ ((_ re.loop 1 1) (str.to_re "2")) ((_ re.loop 1 1) (re.range "0" "3"))) (re.++ (re.opt (re.range "0" "1")) ((_ re.loop 1 1) (re.range "0" "9")))) ((_ re.loop 1 1) (str.to_re ":")) (re.opt (re.++ ((_ re.loop 1 1) (str.to_re ":")) (re.opt (re.range "0" "5")) ((_ re.loop 1 1) (re.range "0" "9")))) (re.opt (re.range "0" "5")) ((_ re.loop 1 1) (re.range "0" "9")))) (str.to_re "\u{a}"))
      (re.++ (re.union (re.++ (re.inter ((_ re.loop 1 1) (str.to_re "3")) (re.comp (re.++ re.all (str.to_re "..") re.all))) ((_ re.loop 1 1) (re.range "0" "1"))) (re.++ (re.opt (re.range "1" "1")) ((_ re.loop 1 1) (re.range "0" "9")))) (str.to_re "-") (re.union (re.++ (re.opt (re.range "0" "1")) ((_ re.loop 1 1) (re.range "0" "2"))) ((_ re.loop 1 1) (re.range "0" "9"))) (str.to_re "-") ((_ re.loop 4 4) (re.range "0" "9")) (re.opt (re.++ (re.+ (re.union (str.to_re " ") (str.to_re "\u{9}") (str.to_re "\u{a}") (str.to_re "\u{c}") (str.to_re "\u{d}"))) (re.union (re.++ ((_ re.loop 1 1) (str.to_re "2")) ((_ re.loop 1 1) (re.range "0" "3"))) (re.++ (re.opt (re.range "0" "1")) ((_ re.loop 1 1) (re.range "0" "9")))) ((_ re.loop 1 1) (str.to_re ":")) (re.opt (re.++ ((_ re.loop 1 1) (str.to_re ":")) (re.opt (re.range "0" "5")) ((_ re.loop 1 1) (re.range "0" ":")))) (re.inter (re.opt (re.range "0" "5")) (re.comp (re.++ re.all (str.to_re "//") re.all))) ((_ re.loop 1 1) (re.range "0" "9")))) (str.to_re "\u{a}")))))

(check-sat)
(exit)
